T = 10;
P = 4;
Exec = [
[930,770,640,790],
[720,670,800,710],
[870,620,760,510],
[800,690,840,580],
[990,650,620,560],
[980,680,880,610],
[500,550,660,820],
[960,840,770,920],
[610,900,500,730],
[900,560,530,560],
];
E = 15;
Edges = [
<1,2>,
<1,3>,
<1,4>,
<1,5>,
<2,8>,
<3,9>,
<3,7>,
<4,9>,
<5,8>,
<5,7>,
<5,6>,
<6,10>,
<7,10>,
<8,10>,
<9,10>,
];
StartAfter = [
{2,3,4,5,6,7,8,9,10,}
{8,10,}
{9,10,7,}
{9,10,}
{8,10,6,7,}
{10,}
{10,}
{10,}
{10,}
{}
];
V = 10;
VarS = [41,52,45,51,40,49,44,40,42,44];
VarR = {
<9,2,29,1,1>,
<1,1,25,2,1>,
<5,3,24,1,2>,
<4,3,22,1,3>,
<2,3,21,2,3>,
<10,2,21,2,3>,
<9,3,28,1,4>,
<6,3,30,1,4>,
<4,2,27,1,4>,
<2,3,23,2,5>,
<9,1,27,2,6>,
<8,2,28,2,7>,
<1,3,24,2,7>,
<7,2,28,2,8>,
<1,2,23,2,8>,
<8,2,20,2,8>,
<9,3,28,1,9>,
<8,1,20,2,10>,
<10,1,26,1,10>,
};
SPMS = [100,100,100,100,];
LLB = [0,497,497,497,497,985,985,985,957,1639];
SLB = [497,1035,1007,957,985,1505,1429,1639,1204,2101];
LUB = [1666,1654,1219,1169,1394,982,906,1116,709,462];
SUB = [1169,1116,709,709,906,462,462,462,462,0];
UB = 2369;
